Minimize
  - 102 y_0 - 90 y_1 - 103 y_2 - 87 y_3 - 40 y_4 - 39 y_6 - 48 y_7 - 98 y_8
   - 57 y_9 - 113 y_10 - 95 y_11 - 110 y_12 - 106 y_13 - 70 y_14 - 55 y_15
   - 17 y_16 - 92 y_17 - 39 y_18 - 95 y_19 - 58 y_20 - 54 y_21 - 74 y_22
   - 78 y_23 - 108 y_24 - 59 y_25 - 78 y_26 - 59 y_27 - 66 y_28 - 81 y_29
   - 70 y_30 - 28 y_31 - 31 y_32 - 92 y_33 - 39 y_34 - 62 y_35 - 33 y_36
   - 15 y_37 - 30 y_38 - 89 y_39 - 106 y_40 - 76 y_41 - 42 y_42 - 59 y_43
   - 81 y_44 - 51 y_45 - 90 y_46 - 64 y_47 - 46 y_48 - 43 y_49
   + 3318 Constant
Subject To
 c_0: y_28 = 1
 c_1_0: y_0 + y_17 >= 1
 c_1_1: y_1 + y_22 + y_26 + y_46 >= 1
 c_1_2: y_2 + y_8 + y_10 + y_13 >= 1
 c_1_3: y_3 + y_8 + y_13 + y_41 >= 1
 c_1_4: y_4 + y_9 + y_15 + y_18 + y_20 + y_27 + y_31 + y_32 + y_43 + y_49
   >= 1
 c_1_5: y_5 + y_16 + y_37 >= 1
 c_1_6: y_6 + y_7 + y_18 + y_34 + y_36 + y_38 + y_42 + y_48 >= 1
 c_1_7: y_6 + y_7 + y_18 + y_25 + y_34 + y_36 + y_38 + y_42 + y_48 >= 1
 c_1_8: y_2 + y_3 + y_8 + y_10 + y_13 + y_17 >= 1
 c_1_9: y_4 + y_9 + y_23 + y_27 + y_43 + y_47 >= 1
 c_1_10: y_2 + y_8 + y_10 + y_13 >= 1
 c_1_11: y_11 + y_19 + y_29 + y_33 + y_39 >= 1
 c_1_12: y_12 + y_13 + y_24 + y_40 >= 1
 c_1_13: y_2 + y_3 + y_8 + y_10 + y_12 + y_13 + y_24 + y_40 >= 1
 c_1_14: y_14 + y_15 + y_20 + y_21 + y_22 + y_26 + y_28 + y_35 + y_44 >= 1
 c_1_15: y_4 + y_14 + y_15 + y_20 + y_21 + y_22 + y_28 + y_35 + y_45 + y_49
   >= 1
 c_1_16: y_5 + y_16 + y_36 + y_37 + y_38 >= 1
 c_1_17: y_0 + y_8 + y_17 + y_23 >= 1
 c_1_18: y_4 + y_6 + y_7 + y_18 + y_32 + y_34 + y_36 + y_38 + y_42 >= 1
 c_1_19: y_11 + y_19 + y_29 + y_33 + y_39 >= 1
 c_1_20: y_4 + y_14 + y_15 + y_20 + y_21 + y_22 + y_27 + y_28 + y_35 + y_43
   + y_45 + y_49 >= 1
 c_1_21: y_14 + y_15 + y_20 + y_21 + y_28 + y_35 + y_45 + y_49 >= 1
 c_1_22: y_1 + y_14 + y_15 + y_20 + y_22 + y_26 + y_28 + y_35 + y_44 + y_46
   >= 1
 c_1_23: y_9 + y_17 + y_23 + y_27 + y_43 + y_47 >= 1
 c_1_24: y_12 + y_13 + y_24 + y_40 >= 1
 c_1_25: y_7 + y_25 + y_30 + y_34 + y_41 + y_42 + y_47 >= 1
 c_1_26: y_1 + y_14 + y_22 + y_26 + y_28 + y_35 + y_44 + y_46 >= 1
 c_1_27: y_4 + y_9 + y_20 + y_23 + y_27 + y_35 + y_43 + y_47 >= 1
 c_1_28: y_14 + y_15 + y_20 + y_21 + y_22 + y_26 + y_28 + y_35 + y_45 >= 1
 c_1_29: y_11 + y_19 + y_29 + y_33 + y_39 >= 1
 c_1_30: y_25 + y_30 + y_41 >= 1
 c_1_31: y_4 + y_31 + y_32 + y_49 >= 1
 c_1_32: y_4 + y_18 + y_31 + y_32 + y_36 + y_49 >= 1
 c_1_33: y_11 + y_19 + y_29 + y_33 + y_39 >= 1
 c_1_34: y_6 + y_7 + y_18 + y_25 + y_34 + y_36 + y_38 + y_42 >= 1
 c_1_35: y_14 + y_15 + y_20 + y_21 + y_22 + y_26 + y_27 + y_28 + y_35
   + y_43 + y_45 >= 1
 c_1_36: y_6 + y_7 + y_16 + y_18 + y_32 + y_34 + y_36 + y_37 + y_38 + y_42
   >= 1
 c_1_37: y_5 + y_16 + y_36 + y_37 + y_38 >= 1
 c_1_38: y_6 + y_7 + y_16 + y_18 + y_34 + y_36 + y_37 + y_38 + y_42 + y_48
   >= 1
 c_1_39: y_11 + y_19 + y_29 + y_33 + y_39 >= 1
 c_1_40: y_12 + y_13 + y_24 + y_40 >= 1
 c_1_41: y_3 + y_25 + y_30 + y_41 >= 1
 c_1_42: y_6 + y_7 + y_18 + y_25 + y_34 + y_36 + y_38 + y_42 >= 1
 c_1_43: y_4 + y_9 + y_20 + y_23 + y_27 + y_35 + y_43 + y_47 >= 1
 c_1_44: y_14 + y_22 + y_26 + y_44 + y_46 >= 1
 c_1_45: y_15 + y_20 + y_21 + y_28 + y_35 + y_45 + y_49 >= 1
 c_1_46: y_1 + y_22 + y_26 + y_44 + y_46 >= 1
 c_1_47: y_9 + y_23 + y_25 + y_27 + y_43 + y_47 >= 1
 c_1_48: y_6 + y_7 + y_38 + y_48 >= 1
 c_1_49: y_4 + y_15 + y_20 + y_21 + y_31 + y_32 + y_45 + y_49 >= 1
Bounds
 Constant = 1
Binaries
 y_0 y_1 y_2 y_3 y_4 y_5 y_6 y_7 y_8 y_9 y_10 y_11 y_12 y_13 y_14 y_15 y_16
 y_17 y_18 y_19 y_20 y_21 y_22 y_23 y_24 y_25 y_26 y_27 y_28 y_29 y_30 y_31
 y_32 y_33 y_34 y_35 y_36 y_37 y_38 y_39 y_40 y_41 y_42 y_43 y_44 y_45 y_46
 y_47 y_48 y_49
End
